opti conp c6

library lib2.lib
dump temp.res
maxcyc 1500
lbfgs_order 5000
time 5 minutes
library lib2.lib
# 
title
ASE calculation                                                                 
end
cell
   4.143587   5.735504   3.504932  82.198850  88.362043  87.805706
fractional  1   
Sr    core 0.0053686 0.9985056 0.2570004 2.00000000 1.00000 0.00000             
O     core 0.4976015 0.2344821 0.9946979 -2.0000000 1.00000 0.00000             
O     core 0.6883440 0.5799483 0.3393347 -2.0000000 1.00000 0.00000             
Ti    core 0.5555143 0.5389851 0.8514761 4.00000000 1.00000 0.00000             
O     core 0.2135291 0.7312719 0.7847560 -2.0000000 1.00000 0.00000             
